282 5
10 10 10 10 10 

0 0 0 0 0 0 2 2 24 
0 0 0 0 0 0 4 3 4 5 7 
8 0 5 0 2 0 4 9 8 6 67 
3 0 2 0 5 0 3 15 9 8 
8 0 9 0 8 0 3 15 10 9 
2 0 7 0 6 0 4 15 12 11 10 
8 0 9 0 9 0 4 15 12 11 10 
8 0 10 0 7 0 3 12 11 10 
10 0 5 0 8 0 3 22 12 11 
3 0 10 0 6 0 5 22 17 16 14 13 
1 0 8 0 5 0 3 17 14 13 
1 0 9 0 9 0 4 21 20 17 16 
4 0 7 0 10 0 3 21 20 19 
4 0 6 0 9 0 3 21 19 18 
3 0 7 0 7 0 3 20 19 18 
8 0 9 0 8 0 2 19 18 
1 0 5 0 10 0 1 18 
10 0 10 0 6 0 1 23 
6 0 10 0 9 0 1 23 
8 0 8 0 8 0 1 23 
9 0 8 0 9 0 1 23 
9 0 6 0 9 0 1 23 
0 0 0 0 0 0 1 60 
0 0 0 0 0 0 2 25 26 
4 0 0 1 0 0 3 34 33 27 
8 0 0 10 0 0 2 30 28 
5 0 0 9 0 0 3 32 30 29 
3 0 0 6 0 0 2 31 29 
3 0 0 7 0 0 1 35 
1 0 0 5 0 0 1 35 
3 0 0 10 0 0 1 35 
5 0 0 10 0 0 2 35 252 
5 0 0 7 0 0 1 35 
9 0 0 10 0 0 1 35 
0 0 0 0 0 0 2 36 48 
0 0 0 0 0 0 7 37 38 40 41 44 45 46 
6 5 0 0 0 0 2 43 39 
2 5 0 0 0 0 2 43 39 
8 8 0 0 0 0 1 42 
10 10 0 0 0 0 1 43 
2 5 0 0 0 0 1 42 
4 10 0 0 0 0 1 47 
6 10 0 0 0 0 1 47 
7 5 0 0 0 0 1 47 
10 7 0 0 0 0 2 47 273 
5 10 0 0 0 0 1 47 
0 0 0 0 0 0 1 60 
0 0 0 0 0 0 4 49 50 51 52 
4 0 0 0 4 0 5 58 57 55 53 214 
7 0 0 0 10 0 2 54 53 
6 0 0 0 8 0 2 57 55 
10 0 0 0 10 0 1 54 
10 0 0 0 5 0 1 56 
6 0 0 0 5 0 1 55 
4 0 0 0 9 0 1 59 
3 0 0 0 7 0 1 59 
5 0 0 0 10 0 1 59 
8 0 0 0 7 0 1 59 
0 0 0 0 0 0 1 60 
0 0 0 0 0 0 5 61 73 85 97 109 
0 0 0 0 0 0 5 62 63 64 65 71 
10 0 0 0 4 0 4 70 69 68 67 
5 0 0 0 7 0 3 69 68 66 
8 0 0 0 10 0 3 69 68 67 
2 0 0 0 10 0 3 69 68 67 
7 0 0 0 4 0 1 67 
2 0 0 0 9 0 2 72 100 
7 0 0 0 8 0 1 72 
8 0 0 0 7 0 1 72 
9 0 0 0 10 0 1 72 
4 0 0 0 6 0 1 72 
0 0 0 0 0 0 1 121 
0 0 0 0 0 0 5 74 75 76 82 83 
9 4 0 0 0 0 3 81 80 78 
9 10 0 0 0 0 2 79 77 
3 6 0 0 0 0 3 79 78 111 
4 10 0 0 0 0 1 78 
2 10 0 0 0 0 1 84 
5 6 0 0 0 0 1 84 
9 9 0 0 0 0 1 84 
3 8 0 0 0 0 1 84 
7 6 0 0 0 0 1 84 
10 6 0 0 0 0 1 84 
0 0 0 0 0 0 1 121 
0 0 0 0 0 0 4 86 87 88 89 
6 0 0 0 0 3 4 95 93 91 90 
9 0 0 0 0 7 2 91 90 
2 0 0 0 0 6 2 94 91 
1 0 0 0 0 7 2 93 91 
4 0 0 0 0 10 1 92 
2 0 0 0 0 10 1 96 
7 0 0 0 0 9 1 96 
5 0 0 0 0 8 1 96 
10 0 0 0 0 7 2 96 107 
4 0 0 0 0 8 1 96 
0 0 0 0 0 0 1 121 
0 0 0 0 0 0 3 98 99 100 
6 0 1 0 0 0 2 103 102 
6 0 7 0 0 0 2 102 101 
8 0 7 0 0 0 2 106 102 
8 0 10 0 0 0 4 107 106 105 104 
9 0 10 0 0 0 3 107 105 104 
1 0 4 0 0 0 3 106 105 104 
6 0 10 0 0 0 1 108 
3 0 10 0 0 0 1 108 
9 0 10 0 0 0 2 108 225 
8 0 6 0 0 0 1 108 
0 0 0 0 0 0 1 121 
0 0 0 0 0 0 3 110 111 115 
10 0 0 0 1 0 3 114 113 112 
1 0 0 0 10 0 2 112 262 
7 0 0 0 5 0 4 119 118 117 116 
7 0 0 0 10 0 4 119 118 117 116 
2 0 0 0 7 0 3 119 118 117 
4 0 0 0 8 0 1 116 
6 0 0 0 10 0 1 120 
2 0 0 0 7 0 1 120 
1 0 0 0 9 0 1 120 
4 0 0 0 8 0 1 120 
0 0 0 0 0 0 1 121 
0 0 0 0 0 0 5 122 144 166 188 210 
0 0 0 0 0 0 15 123 127 130 131 132 133 134 135 136 137 138 139 140 141 142 
7 0 4 0 0 2 1 124 
5 0 5 0 0 9 2 129 125 
6 0 7 0 0 7 1 126 
2 0 10 0 0 10 1 128 
6 0 10 0 0 10 1 128 
9 0 9 0 0 4 1 143 
1 0 5 0 0 7 1 143 
2 0 10 0 0 10 1 143 
10 0 8 0 0 10 1 143 
2 0 4 0 0 10 1 143 
3 0 9 0 0 8 1 143 
5 0 5 0 0 6 1 143 
9 0 5 0 0 6 1 143 
3 0 5 0 0 5 1 143 
8 0 10 0 0 8 1 143 
10 0 10 0 0 6 1 143 
7 0 7 0 0 10 1 143 
8 0 8 0 0 7 1 143 
2 0 10 0 0 9 1 143 
10 0 9 0 0 6 1 143 
0 0 0 0 0 0 1 282 
0 0 0 0 0 0 12 145 146 147 150 152 158 159 160 161 162 163 164 
10 0 5 0 2 0 3 157 154 149 
6 0 6 0 7 0 2 156 148 
7 0 10 0 6 0 3 155 154 151 
1 0 5 0 6 0 1 149 
8 0 7 0 6 0 1 151 
5 0 9 0 10 0 1 151 
4 0 10 0 7 0 1 153 
4 0 8 0 6 0 1 153 
1 0 9 0 10 0 1 165 
6 0 3 0 10 0 1 165 
6 0 8 0 6 0 1 165 
1 0 9 0 9 0 1 165 
2 0 7 0 10 0 1 165 
8 0 6 0 7 0 1 165 
3 0 10 0 9 0 1 165 
7 0 8 0 8 0 1 165 
8 0 9 0 8 0 1 165 
9 0 10 0 9 0 1 165 
7 0 5 0 9 0 1 165 
7 0 6 0 5 0 1 165 
0 0 0 0 0 0 1 282 
0 0 0 0 0 0 6 167 168 169 170 171 172 
3 0 0 4 0 7 7 186 184 183 182 179 177 175 
1 0 0 8 0 7 4 185 183 182 173 
6 0 0 7 0 6 5 185 184 183 179 176 
7 0 0 8 0 10 4 185 182 179 175 
1 0 0 7 0 6 3 183 182 174 
6 0 0 8 0 8 5 185 184 183 182 179 
4 0 0 6 0 7 4 184 181 179 178 
7 0 0 5 0 5 3 181 179 178 
8 0 0 10 0 6 1 176 
1 0 0 10 0 10 2 181 178 
9 0 0 7 0 6 2 181 178 
6 0 0 5 0 10 1 180 
5 0 0 10 0 8 1 180 
5 0 0 7 0 8 1 187 
9 0 0 5 0 8 1 187 
10 0 0 10 0 9 1 187 
7 0 0 10 0 5 1 187 
4 0 0 4 0 9 1 187 
6 0 0 9 0 5 1 187 
3 0 0 10 0 10 1 187 
0 0 0 0 0 0 1 282 
0 0 0 0 0 0 9 189 190 191 192 196 197 198 199 208 
2 1 0 0 0 3 5 207 206 205 204 195 
5 5 0 0 0 9 4 207 203 202 193 
3 6 0 0 0 10 2 203 194 
4 3 0 0 0 6 2 203 195 
9 10 0 0 0 10 3 205 204 200 
2 10 0 0 0 4 1 195 
1 8 0 0 0 9 2 202 200 
1 7 0 0 0 8 2 204 200 
10 9 0 0 0 9 2 202 200 
3 7 0 0 0 7 2 206 203 
5 9 0 0 0 5 1 200 
10 8 0 0 0 9 1 201 
4 9 0 0 0 7 1 209 
3 10 0 0 0 8 1 209 
4 4 0 0 0 8 1 209 
4 9 0 0 0 8 1 209 
3 7 0 0 0 6 1 209 
6 10 0 0 0 9 1 209 
7 10 0 0 0 8 1 209 
9 8 0 0 0 7 1 209 
0 0 0 0 0 0 1 282 
0 0 0 0 0 0 4 211 212 213 214 
5 0 0 0 8 0 3 217 216 215 
4 0 0 0 7 0 3 217 216 215 
8 0 0 0 4 0 3 217 216 215 
1 0 0 0 7 0 2 216 215 
1 0 0 0 6 0 3 220 219 218 
4 0 0 0 3 0 3 220 219 218 
3 0 0 0 10 0 3 220 219 218 
4 0 0 0 10 0 1 221 
10 0 0 0 10 0 1 221 
6 0 0 0 10 0 1 221 
0 0 0 0 0 0 5 222 234 246 258 270 
0 0 0 0 0 0 3 223 224 227 
10 0 3 0 0 0 3 228 226 225 
8 0 6 0 0 0 3 231 228 226 
4 0 9 0 0 0 4 232 231 230 229 
5 0 7 0 0 0 3 232 230 229 
7 0 10 0 0 0 3 231 230 229 
1 0 6 0 0 0 1 229 
5 0 10 0 0 0 1 233 
9 0 6 0 0 0 1 233 
4 0 9 0 0 0 1 233 
1 0 9 0 0 0 1 233 
0 0 0 0 0 0 1 282 
0 0 0 0 0 0 5 235 236 237 243 244 
9 2 0 0 0 0 3 240 239 238 
1 7 0 0 0 0 3 242 240 239 
3 5 0 0 0 0 2 240 239 
1 10 0 0 0 0 1 241 
6 10 0 0 0 0 1 245 
9 9 0 0 0 0 1 245 
1 8 0 0 0 0 1 245 
10 8 0 0 0 0 1 245 
6 8 0 0 0 0 1 245 
8 8 0 0 0 0 1 245 
0 0 0 0 0 0 1 282 
0 0 0 0 0 0 4 247 248 250 251 
3 0 3 0 0 0 4 256 255 253 252 
2 0 8 0 0 0 1 249 
9 0 10 0 0 0 1 252 
2 0 5 0 0 0 1 254 
6 0 9 0 0 0 1 253 
8 0 10 0 0 0 1 257 
3 0 8 0 0 0 1 257 
9 0 6 0 0 0 1 257 
2 0 10 0 0 0 1 257 
3 0 6 0 0 0 1 257 
0 0 0 0 0 0 1 282 
0 0 0 0 0 0 5 259 260 262 263 268 
10 4 0 0 0 0 1 261 
10 8 0 0 0 0 1 261 
7 10 0 0 0 0 4 267 266 265 264 
1 8 0 0 0 0 1 265 
4 3 0 0 0 0 1 264 
3 10 0 0 0 0 1 269 
9 7 0 0 0 0 1 269 
9 10 0 0 0 0 1 269 
4 5 0 0 0 0 1 269 
6 10 0 0 0 0 1 269 
0 0 0 0 0 0 1 282 
0 0 0 0 0 0 4 271 273 279 280 
5 0 0 2 0 0 2 278 272 
6 0 0 7 0 0 4 277 276 275 274 
7 0 0 10 0 0 1 274 
7 0 0 10 0 0 1 281 
2 0 0 7 0 0 1 281 
4 0 0 7 0 0 1 281 
2 0 0 10 0 0 1 281 
5 0 0 8 0 0 1 281 
7 0 0 6 0 0 1 281 
8 0 0 8 0 0 1 281 
0 0 0 0 0 0 1 282 
0 0 0 0 0 0 0 
